words_easy_train/words_504_SAT.qaiger
aag 60 16 0 1 44
32
2
14
16
26
22
24
10
28
18
4
30
20
8
12
6
120
34 21 19
36 34 23
38 36 25
40 38 27
42 40 29
44 41 28
46 45 43
48 47 15
50 39 26
52 51 41
54 53 12
56 37 24
58 57 39
60 59 10
62 58 11
64 35 22
66 65 37
68 21 6
70 69 18
72 70 5
74 20 7
76 75 35
78 76 73
80 78 8
82 81 67
84 79 9
86 85 83
88 87 63
90 89 61
92 90 55
94 46 14
96 52 13
98 97 95
100 98 93
102 101 49
104 31 17
106 30 16
108 107 105
110 109 42
112 108 43
114 113 111
116 115 102
118 114 103
120 119 117
i0 2 y1[7]
i1 1 x1[0]
i2 1 x1[6]
i3 1 x1[7]
i4 2 y1[4]
i5 2 y1[2]
i6 2 y1[3]
i7 1 x1[4]
i8 2 y1[5]
i9 2 y1[0]
i10 1 x1[1]
i11 2 y1[6]
i12 2 y1[1]
i13 1 x1[3]
i14 1 x1[5]
i15 1 x1[2]
o0 bv[0]
c
simplified
  <
    xor
      176
      1 x1
    << 1
      2 y1
