words_easy_train/words_504_SAT.qaiger.qdimacs
p cnf 60 133
a 1 2 3 4 5 6 7 8 0
e 9 10 11 12 13 14 15 16 17 18 19 20 21 22 23 24 25 26 27 28 29 30 31 32 33 34 35 36 37 38 39 40 41 42 43 44 45 46 47 48 49 50 51 52 53 54 55 56 57 58 59 60 0
10 9 17 0
-10 -17 0
-9 -17 0
-17 11 18 0
17 -18 0
-11 -18 0
-18 12 19 0
18 -19 0
-12 -19 0
-19 13 20 0
19 -20 0
-13 -20 0
-20 14 21 0
20 -21 0
-14 -21 0
20 -14 22 0
-20 -22 0
14 -22 0
22 21 23 0
-22 -23 0
-21 -23 0
23 7 24 0
-23 -24 0
-7 -24 0
19 -13 25 0
-19 -25 0
13 -25 0
25 20 26 0
-25 -26 0
-20 -26 0
26 -6 27 0
-26 -27 0
6 -27 0
18 -12 28 0
-18 -28 0
12 -28 0
28 19 29 0
-28 -29 0
-19 -29 0
29 -5 30 0
-29 -30 0
5 -30 0
-29 5 31 0
29 -31 0
-5 -31 0
17 -11 32 0
-17 -32 0
11 -32 0
32 18 33 0
-32 -33 0
-18 -33 0
10 -3 34 0
-10 -34 0
3 -34 0
34 -9 35 0
-34 -35 0
9 -35 0
-35 2 36 0
35 -36 0
-2 -36 0
-10 3 37 0
10 -37 0
-3 -37 0
37 17 38 0
-37 -38 0
-17 -38 0
-38 36 39 0
38 -39 0
-36 -39 0
-39 -4 40 0
39 -40 0
4 -40 0
40 33 41 0
-40 -41 0
-33 -41 0
39 4 42 0
-39 -42 0
-4 -42 0
42 41 43 0
-42 -43 0
-41 -43 0
43 31 44 0
-43 -44 0
-31 -44 0
44 30 45 0
-44 -45 0
-30 -45 0
-45 27 46 0
45 -46 0
-27 -46 0
-23 -7 47 0
23 -47 0
7 -47 0
-26 6 48 0
26 -48 0
-6 -48 0
48 47 49 0
-48 -49 0
-47 -49 0
-49 46 50 0
49 -50 0
-46 -50 0
50 24 51 0
-50 -51 0
-24 -51 0
15 8 52 0
-15 -52 0
-8 -52 0
-15 -8 53 0
15 -53 0
8 -53 0
53 52 54 0
-53 -54 0
-52 -54 0
54 -21 55 0
-54 -55 0
21 -55 0
-54 21 56 0
54 -56 0
-21 -56 0
56 55 57 0
-56 -57 0
-55 -57 0
57 -51 58 0
-57 -58 0
51 -58 0
-57 51 59 0
57 -59 0
-51 -59 0
59 58 60 0
-59 -60 0
-58 -60 0
60 0
